ioscaa1@Bogdan:~$ nano bbfe2b27182d2ee7fefdb557f458ac9c.cnf
ioscaa1@Bogdan:~$ minisat bbfe2b27182d2ee7fefdb557f458ac9c.cn
f bbfe2b27182d2ee7fefdb557f458ac9c.out
WARNING: for repeatability, setting FPU to use double precision
============================[ Problem Statistics ]=============================
|                                                                             |
|  Number of variables:           441
                 |
|  Number of clauses:            9162
                 |
|  Parse time:                   0.00 s
                 |
|  Eliminated clauses:           0.00 Mb
                 |
|  Simplification time:          0.00 s
                 |
|
                 |
============================[ Search Statistics ]==============================
| Conflicts |          ORIGINAL         |          LEARNT          | Progress |
|           |    Vars  Clauses Literals |    Limit  Clauses Lit/Cl |          |
===============================================================================
|       100 |     420     9057    26838 |     3320      100     37 |  0.001 % |
|       250 |     420     9057    26838 |     3652      250     32 |  0.001 % |
|       475 |     420     9057    26838 |     4018      475     38 |  0.001 % |
|       812 |     420     9057    26838 |     4420      812     30 |  0.013 % |
|      1318 |     420     9057    26838 |     4862     1318     24 |  0.001 % |
|      2077 |     420     9057    26838 |     5348     2077     21 |  0.001 % |
|      3216 |     420     9057    26838 |     5883     3216     19 |  0.013 % |
|      4924 |     420     9057    26838 |     6471     4924     17 |  0.001 % |
|      7486 |     420     9057    26838 |     7118     4177     14 |  0.013 % |
|     11330 |     420     9057    26838 |     7830     4390     14 |  0.013 % |
|     17096 |     420     9057    26838 |     8613     6176     14 |  0.013 % |
|     25745 |     420     9057    26838 |     9474     6101     13 |  0.002 % |
|     38719 |     420     9057    26838 |    10422     9455     15 |  0.013 % |
|     58180 |     420     9057    26838 |    11464     7826     14 |  0.013 % |
|     87372 |     420     9057    26838 |    12611     8118     18 |  0.002 % |
|    131161 |     420     9057    26838 |    13872     7398     14 |  0.013 % |
|    196845 |     420     9057    26838 |    15259    10076     23 |  0.001 % |
|    295371 |     420     9057    26838 |    16785     8634     15 |  0.001 % |
|    443160 |     420     9057    26838 |    18463    12588     18 |  0.013 % |
|    664843 |     420     9057    26838 |    20310    11304     15 |  0.013 % |
|    997368 |     420     9057    26838 |    22341    16784     22 |  0.013 % |
|   1496156 |     420     9057    26838 |    24575    20419     13 |  0.002 % |
|   2244338 |     420     9057    26838 |    27033    20928     24 |  0.002 % |
|   3366612 |     420     9057    26838 |    29736    12888     13 |  0.001 % |
|   5050023 |     420     9057    26838 |    32709    28478     23 |  0.002 % |
|   7575139 |     420     9057    26838 |    35980    24446     25 |  0.002 % |
|  11362814 |     420     9057    26838 |    39579    15293     27 |  0.013 % |
|  17044326 |     420     9057    26838 |    43536    24714     17 |  0.013 % |
|  25566595 |     420     9057    26838 |    47890    32422     21 |  0.002 % |
|  38349998 |     420     9057    26838 |    52679    43027     18 |  0.002 % |
|  57525103 |     420     9057    26838 |    57947    44980     25 |  0.001 % |
|  86287761 |     420     9057    26838 |    63742    29727     15 |  0.001 % |
| 129431749 |     420     9057    26838 |    70116    45591     19 |  0.002 % |
| 194147731 |     420     9057    26838 |    77128    27350     16 |  0.002 % |
| 291221704 |     420     9057    26838 |    84841    33087     18 |  0.013 % |
| 436832664 |     420     9057    26838 |    93325    16878     14 |  0.002 % |
| 655249104 |     420     9057    26838 |   102657    92762     18 |  0.002 % |
| 982873765 |     420     9057    26838 |   112923    36999     35 |  0.002 % |
| 1474310757 |     420     9057    26838 |   124216    90826     15 |  0.013 % |
^C===============================================================================
restarts              : 2097151
conflicts             : 2119851255     (82214 /sec)
decisions             : 7101107058     (0.00 % random) (275402 /sec)
propagations          : 44026195846    (1707467 /sec)
conflict literals     : 50897210794    (21.00 % deleted)
Memory used           : 318.00 MB
CPU time              : 25784.5 s

INDETERMINATE